c FILE /home/rafael/Documents/HappySet/MIHS/inputs/happygen/output/graph_scale_free_k7_p0.5_v100_20241127_083903.txt
c SOURCE This is a scale-free graph formed for the happy graph colouring problem.
c DESCRIPTION It was generated using the problem generator of Rhyd Lewis
c
c GRAPH STATS
c Seed                             = -1950127191
c Number of Nodes                  = 100
c Number of colours k              = 7
c Number of pre-assignments        = 50
c Number of links per new node     = 5
c Density                          = 0.0979798
c 
c The degrees of nodes 1 to 100, respectively, are as follows 
c [44, 42, 36, 31, 26, 26, 25, 24, 17, 17, 16, 14, 14, 13, 13, 13, 13, 13, 13, 12, 11, 11, 11, 10, 10, 10, 
c  10, 10, 10, 10, 10, 9, 9, 9, 9, 9, 9, 9, 8, 8, 8, 8, 8, 8, 8, 8, 7, 7, 7, 7, 7, 
c  7, 7, 7, 7, 7, 7, 6, 6, 6, 6, 6, 6, 6, 6, 6, 6, 6, 6, 6, 6, 6, 6, 5, 5, 5, 
c  5, 5, 5, 5, 5, 5, 5, 5, 5, 5, 5, 5, 5, 5, 5, 5, 5, 5, 5, 5, 5, 5, 5, 5] 
c  
p edge 100 485 7
e 1 2
e 1 3
e 1 4
e 1 5
e 1 7
e 1 8
e 1 9
e 1 10
e 1 11
e 1 12
e 1 13
e 1 15
e 1 17
e 1 19
e 1 26
e 1 27
e 1 28
e 1 34
e 1 35
e 1 38
e 1 39
e 1 40
e 1 47
e 1 49
e 1 51
e 1 53
e 1 54
e 1 56
e 1 58
e 1 59
e 1 60
e 1 63
e 1 66
e 1 70
e 1 73
e 1 74
e 1 80
e 1 82
e 1 84
e 1 85
e 1 86
e 1 92
e 1 93
e 1 97
e 2 3
e 2 4
e 2 5
e 2 6
e 2 7
e 2 8
e 2 9
e 2 10
e 2 11
e 2 12
e 2 14
e 2 15
e 2 16
e 2 20
e 2 22
e 2 23
e 2 24
e 2 25
e 2 26
e 2 27
e 2 32
e 2 34
e 2 35
e 2 37
e 2 38
e 2 39
e 2 41
e 2 43
e 2 47
e 2 50
e 2 54
e 2 55
e 2 60
e 2 63
e 2 66
e 2 71
e 2 78
e 2 80
e 2 94
e 2 96
e 2 99
e 3 4
e 3 5
e 3 7
e 3 8
e 3 9
e 3 10
e 3 11
e 3 12
e 3 13
e 3 16
e 3 18
e 3 20
e 3 26
e 3 28
e 3 31
e 3 32
e 3 35
e 3 36
e 3 37
e 3 38
e 3 39
e 3 40
e 3 41
e 3 44
e 3 46
e 3 63
e 3 66
e 3 68
e 3 79
e 3 80
e 3 84
e 3 88
e 3 92
e 3 97
e 4 5
e 4 6
e 4 7
e 4 8
e 4 9
e 4 10
e 4 11
e 4 13
e 4 19
e 4 21
e 4 22
e 4 28
e 4 35
e 4 38
e 4 39
e 4 40
e 4 43
e 4 44
e 4 55
e 4 58
e 4 62
e 4 76
e 4 77
e 4 79
e 4 87
e 4 88
e 4 89
e 4 100
e 5 6
e 5 7
e 5 12
e 5 14
e 5 17
e 5 18
e 5 20
e 5 23
e 5 24
e 5 31
e 5 32
e 5 33
e 5 37
e 5 40
e 5 41
e 5 55
e 5 64
e 5 65
e 5 68
e 5 75
e 5 76
e 5 98
e 6 7
e 6 9
e 6 10
e 6 14
e 6 15
e 6 18
e 6 20
e 6 21
e 6 23
e 6 26
e 6 27
e 6 32
e 6 47
e 6 48
e 6 50
e 6 58
e 6 64
e 6 65
e 6 71
e 6 78
e 6 86
e 6 90
e 6 91
e 7 8
e 7 9
e 7 14
e 7 16
e 7 18
e 7 20
e 7 21
e 7 24
e 7 33
e 7 36
e 7 50
e 7 53
e 7 54
e 7 58
e 7 64
e 7 75
e 7 78
e 7 81
e 7 95
e 8 13
e 8 19
e 8 21
e 8 22
e 8 25
e 8 30
e 8 42
e 8 46
e 8 50
e 8 51
e 8 61
e 8 66
e 8 70
e 8 72
e 8 81
e 8 82
e 8 84
e 8 87
e 8 98
e 9 12
e 9 14
e 9 15
e 9 17
e 9 25
e 9 47
e 9 49
e 9 53
e 9 69
e 9 82
e 9 98
e 10 18
e 10 25
e 10 34
e 10 36
e 10 43
e 10 44
e 10 48
e 10 60
e 10 69
e 10 72
e 10 88
e 10 93
e 11 15
e 11 17
e 11 19
e 11 22
e 11 24
e 11 28
e 11 46
e 11 48
e 11 49
e 11 69
e 11 85
e 11 89
e 12 13
e 12 41
e 12 42
e 12 48
e 12 54
e 12 67
e 12 85
e 12 89
e 12 90
e 13 16
e 13 21
e 13 29
e 13 32
e 13 36
e 13 39
e 13 57
e 13 70
e 13 100
e 14 15
e 14 16
e 14 24
e 14 57
e 14 59
e 14 81
e 14 83
e 14 95
e 15 29
e 15 30
e 15 51
e 15 61
e 15 73
e 15 84
e 15 90
e 16 25
e 16 29
e 16 33
e 16 40
e 16 45
e 16 46
e 16 59
e 16 85
e 17 20
e 17 27
e 17 31
e 17 37
e 17 41
e 17 48
e 17 66
e 17 69
e 17 77
e 18 34
e 18 59
e 18 70
e 18 75
e 18 77
e 18 85
e 18 94
e 18 96
e 19 23
e 19 26
e 19 40
e 19 63
e 19 71
e 19 74
e 19 75
e 19 95
e 19 99
e 20 22
e 20 36
e 20 42
e 20 52
e 20 67
e 20 95
e 21 30
e 21 31
e 21 35
e 21 76
e 21 78
e 21 92
e 22 27
e 22 30
e 22 33
e 22 43
e 22 44
e 22 58
e 23 25
e 23 29
e 23 42
e 23 44
e 23 46
e 23 56
e 23 72
e 24 47
e 24 62
e 24 74
e 24 88
e 24 93
e 25 49
e 25 53
e 25 74
e 25 79
e 26 29
e 26 34
e 26 38
e 26 52
e 26 65
e 27 45
e 27 53
e 27 61
e 27 65
e 27 73
e 28 34
e 28 45
e 28 56
e 28 62
e 28 67
e 28 92
e 29 49
e 29 68
e 29 76
e 29 79
e 29 84
e 30 35
e 30 45
e 30 68
e 30 73
e 30 83
e 30 90
e 31 48
e 31 52
e 31 61
e 31 62
e 31 63
e 31 82
e 32 33
e 32 43
e 32 52
e 32 60
e 33 72
e 33 75
e 33 78
e 33 97
e 34 50
e 34 51
e 34 89
e 35 71
e 35 83
e 35 100
e 36 37
e 36 86
e 36 92
e 36 99
e 37 42
e 37 83
e 37 86
e 37 98
e 38 52
e 38 60
e 38 62
e 38 86
e 39 61
e 39 80
e 39 93
e 40 51
e 40 74
e 41 59
e 41 80
e 41 91
e 42 77
e 42 81
e 42 93
e 43 45
e 43 55
e 43 90
e 44 73
e 44 83
e 44 97
e 45 70
e 45 88
e 45 91
e 46 64
e 46 82
e 46 87
e 47 67
e 47 69
e 48 96
e 49 76
e 49 81
e 50 94
e 50 97
e 51 65
e 51 87
e 52 56
e 52 79
e 53 54
e 53 68
e 54 55
e 54 98
e 55 56
e 55 57
e 56 72
e 56 91
e 57 68
e 57 70
e 57 96
e 57 100
e 58 67
e 59 64
e 60 77
e 61 87
e 62 91
e 63 89
e 64 94
e 65 99
e 66 94
e 67 96
e 69 71
e 71 95
e 72 99
e 73 100
n 8 5
n 15 5
n 23 3
n 24 2
n 26 4
n 31 1
n 32 1
n 33 1
n 34 4
n 38 4
n 40 2
n 48 1
n 49 4
n 53 3
n 55 3
n 56 3
n 58 1
n 59 6
n 64 6
n 67 1
n 68 3
n 69 7
n 70 5
n 71 7
n 73 5
n 74 2
n 75 1
n 76 4
n 77 4
n 78 1
n 79 7
n 80 3
n 83 6
n 84 5
n 85 2
n 86 4
n 87 5
n 88 2
n 89 4
n 90 5
n 91 3
n 92 1
n 93 2
n 94 6
n 95 7
n 96 1
n 97 1
n 98 5
n 99 3
n 100 5
